197 
1
197 
1 1 1 1 1 1 1 1 1 1 1 1 1 1 1 1 1 1 1 1 1 1 1 1 1 1 1 1 1 1 1 1 1 1 1 1 1 1 1 1 1 1 1 1 1 1 1 1 1 1 1 1 1 1 1 1 1 1 1 1 1 1 1 1 1 1 1 1 1 1 1 1 1 1 1 1 1 1 1 1 1 1 1 1 1 1 1 1 1 1 1 1 1 1 1 1 1 1 1 1 1 1 1 1 1 1 1 1 1 1 1 1 1 1 1 1 1 1 1 1 1 1 1 1 1 1 1 1 1 1 1 1 1 1 1 1 1 1 1 1 1 1 1 1 1 1 1 1 1 1 1 1 1 1 1 1 1 1 1 1 1 1 1 1 1 1 1 1 1 1 1 1 1 1 1 1 1 1 1 1 1 1 1 1 1 1 1 1 1 1 1 1 1 1 1 1 1 
1 1 1 1 1
2 1 2 2 1
3 1 3 3 1
4 1 4 4 1
5 1 5 5 1
6 1 6 6 1
7 1 7 7 1
8 1 8 8 1
9 1 9 9 1
10 1 10 10 1
11 1 11 11 1
12 1 12 12 1
13 1 13 13 1
14 1 14 14 1
15 1 15 15 1
16 1 16 16 1
17 1 17 17 1
18 1 18 18 1
19 1 19 19 1
20 1 20 20 1
21 1 21 21 1
22 1 22 22 1
23 1 23 23 1
24 1 24 24 1
25 1 25 25 1
26 1 26 26 1
27 1 27 27 1
28 1 28 28 1
29 1 29 29 1
30 1 30 30 1
31 1 31 31 1
32 1 32 32 1
33 1 33 33 1
34 1 34 34 1
35 1 35 35 1
36 1 36 36 1
37 1 37 37 1
38 1 38 38 1
39 1 39 39 1
40 1 40 40 1
41 1 41 41 1
42 1 42 42 1
43 1 43 43 1
44 1 44 44 1
45 1 45 45 1
46 1 46 46 1
47 1 47 47 1
48 1 48 48 1
49 1 49 49 1
50 1 50 50 1
51 1 51 51 1
52 1 52 52 1
53 1 53 53 1
54 1 54 54 1
55 1 55 55 1
56 1 56 56 1
57 1 57 57 1
58 1 58 58 1
59 1 59 59 1
60 1 60 60 1
61 1 61 61 1
62 1 62 62 1
63 1 63 63 1
64 1 64 64 1
65 1 65 65 1
66 1 66 66 1
67 1 67 67 1
68 1 68 68 1
69 1 69 69 1
70 1 70 70 1
71 1 71 71 1
72 1 72 72 1
73 1 73 73 1
74 1 74 74 1
75 1 75 75 1
76 1 76 76 1
77 1 77 77 1
78 1 78 78 1
79 1 79 79 1
80 1 80 80 1
81 1 81 81 1
82 1 82 82 1
83 1 83 83 1
84 1 84 84 1
85 1 85 85 1
86 1 86 86 1
87 1 87 87 1
88 1 88 88 1
89 1 89 89 1
90 1 90 90 1
91 1 91 91 1
92 1 92 92 1
93 1 93 93 1
94 1 94 94 1
95 1 95 95 1
96 1 96 96 1
97 1 97 97 1
98 1 98 98 1
99 1 99 99 1
100 1 100 100 1
101 1 101 101 1
102 1 102 102 1
103 1 103 103 1
104 1 104 104 1
105 1 105 105 1
106 1 106 106 1
107 1 107 107 1
108 1 108 108 1
109 1 109 109 1
110 1 110 110 1
111 1 111 111 1
112 1 112 112 1
113 1 113 113 1
114 1 114 114 1
115 1 115 115 1
116 1 116 116 1
117 1 117 117 1
118 1 118 118 1
119 1 119 119 1
120 1 120 120 1
121 1 121 121 1
122 1 122 122 1
123 1 123 123 1
124 1 124 124 1
125 1 125 125 1
126 1 126 126 1
127 1 127 127 1
128 1 128 128 1
129 1 129 129 1
130 1 130 130 1
131 1 131 131 1
132 1 132 132 1
133 1 133 133 1
134 1 134 134 1
135 1 135 135 1
136 1 136 136 1
137 1 137 137 1
138 1 138 138 1
139 1 139 139 1
140 1 140 140 1
141 1 141 141 1
142 1 142 142 1
143 1 143 143 1
144 1 144 144 1
145 1 145 145 1
146 1 146 146 1
147 1 147 147 1
148 1 148 148 1
149 1 149 149 1
150 1 150 150 1
151 1 151 151 1
152 1 152 152 1
153 1 153 153 1
154 1 154 154 1
155 1 155 155 1
156 1 156 156 1
157 1 157 157 1
158 1 158 158 1
159 1 159 159 1
160 1 160 160 1
161 1 161 161 1
162 1 162 162 1
163 1 163 163 1
164 1 164 164 1
165 1 165 165 1
166 1 166 166 1
167 1 167 167 1
168 1 168 168 1
169 1 169 169 1
170 1 170 170 1
171 1 171 171 1
172 1 172 172 1
173 1 173 173 1
174 1 174 174 1
175 1 175 175 1
176 1 176 176 1
177 1 177 177 1
178 1 178 178 1
179 1 179 179 1
180 1 180 180 1
181 1 181 181 1
182 1 182 182 1
183 1 183 183 1
184 1 184 184 1
185 1 185 185 1
186 1 186 186 1
187 1 187 187 1
188 1 188 188 1
189 1 189 189 1
190 1 190 190 1
191 1 191 191 1
192 1 192 192 1
193 1 193 193 1
194 1 194 194 1
195 1 195 195 1
196 1 196 196 1
197 1 197 197 1
0 1 1 2 1.000000
0 1 1 3 1.000000
0 1 1 4 1.000000
0 1 1 5 1.000000
0 1 1 6 1.000000
0 1 1 7 1.000000
0 1 1 8 1.000000
0 1 1 9 1.000000
0 1 1 10 1.000000
0 1 1 11 1.000000
0 1 1 12 1.000000
0 1 1 13 1.000000
0 1 1 14 1.000000
0 1 1 15 1.000000
0 1 1 16 1.000000
0 1 1 17 1.000000
0 1 1 18 1.000000
0 1 1 19 1.000000
0 1 1 20 1.000000
0 1 1 21 1.000000
0 1 1 22 1.000000
0 1 1 23 1.000000
0 1 1 24 1.000000
0 1 1 25 1.000000
0 1 1 26 1.000000
0 1 1 27 1.000000
0 1 1 28 1.000000
0 1 1 29 1.000000
0 1 1 30 1.000000
0 1 1 31 1.000000
0 1 1 32 1.000000
0 1 1 33 1.000000
0 1 1 34 1.000000
0 1 1 35 1.000000
0 1 1 36 1.000000
0 1 1 37 1.000000
0 1 1 38 1.000000
0 1 1 39 1.000000
0 1 1 40 1.000000
0 1 1 41 1.000000
0 1 1 42 1.000000
0 1 1 43 1.000000
0 1 1 44 1.000000
0 1 1 45 1.000000
0 1 1 46 1.000000
0 1 1 47 1.000000
0 1 1 48 1.000000
0 1 1 49 1.000000
0 1 1 50 1.000000
0 1 1 51 1.000000
0 1 1 52 1.000000
0 1 1 53 1.000000
0 1 1 54 1.000000
0 1 1 55 1.000000
0 1 1 56 1.000000
0 1 1 57 1.000000
0 1 1 58 1.000000
0 1 1 59 1.000000
0 1 1 60 1.000000
0 1 1 61 1.000000
0 1 1 62 1.000000
0 1 1 63 1.000000
0 1 1 64 1.000000
0 1 1 65 1.000000
0 1 1 66 1.000000
0 1 1 67 1.000000
0 1 1 68 1.000000
0 1 1 69 1.000000
0 1 1 70 1.000000
0 1 1 71 1.000000
0 1 1 72 1.000000
0 1 1 73 1.000000
0 1 1 74 1.000000
0 1 1 75 1.000000
0 1 1 76 1.000000
0 1 1 77 1.000000
0 1 1 78 1.000000
0 1 1 79 1.000000
0 1 1 80 1.000000
0 1 1 81 1.000000
0 1 1 82 1.000000
0 1 1 83 1.000000
0 1 1 84 1.000000
0 1 1 85 1.000000
0 1 1 86 1.000000
0 1 1 87 1.000000
0 1 1 88 1.000000
0 1 1 89 1.000000
0 1 1 90 1.000000
0 1 1 91 1.000000
0 1 1 92 1.000000
0 1 1 93 1.000000
0 1 1 94 1.000000
0 1 1 95 1.000000
0 1 1 96 1.000000
0 1 1 97 1.000000
0 1 1 98 1.000000
0 1 1 99 1.000000
0 1 1 100 1.000000
0 1 1 101 1.000000
0 1 1 102 1.000000
0 1 1 103 1.000000
0 1 1 104 1.000000
0 1 1 105 1.000000
0 1 1 106 1.000000
0 1 1 107 1.000000
0 1 1 108 1.000000
0 1 1 109 1.000000
0 1 1 110 1.000000
0 1 1 111 1.000000
0 1 1 112 1.000000
0 1 1 113 1.000000
0 1 1 114 1.000000
0 1 1 115 1.000000
0 1 1 116 1.000000
0 1 1 117 1.000000
0 1 1 118 1.000000
0 1 1 119 1.000000
0 1 1 120 1.000000
0 1 1 121 1.000000
0 1 1 122 1.000000
0 1 1 123 1.000000
0 1 1 124 1.000000
0 1 1 125 1.000000
0 1 1 126 1.000000
0 1 1 127 1.000000
0 1 1 128 1.000000
0 1 1 129 1.000000
0 1 1 130 1.000000
0 1 1 131 1.000000
0 1 1 132 1.000000
0 1 1 133 1.000000
0 1 1 134 1.000000
0 1 1 135 1.000000
0 1 1 136 1.000000
0 1 1 137 1.000000
0 1 1 138 1.000000
0 1 1 139 1.000000
0 1 1 140 1.000000
0 1 1 141 1.000000
0 1 1 142 1.000000
0 1 1 143 1.000000
0 1 1 144 1.000000
0 1 1 145 1.000000
0 1 1 146 1.000000
0 1 1 147 1.000000
0 1 1 148 1.000000
0 1 1 149 1.000000
0 1 1 150 1.000000
0 1 1 151 1.000000
0 1 1 152 1.000000
0 1 1 153 1.000000
0 1 1 154 1.000000
0 1 1 155 1.000000
0 1 1 156 1.000000
0 1 1 157 1.000000
0 1 1 158 1.000000
0 1 1 159 1.000000
0 1 1 160 1.000000
0 1 1 161 1.000000
0 1 1 162 1.000000
0 1 1 163 1.000000
0 1 1 164 1.000000
0 1 1 165 1.000000
0 1 1 166 1.000000
0 1 1 167 1.000000
0 1 1 168 1.000000
0 1 1 169 1.000000
0 1 1 170 1.000000
0 1 1 171 1.000000
0 1 1 172 1.000000
0 1 1 173 1.000000
0 1 1 174 1.000000
0 1 1 175 1.000000
0 1 1 176 1.000000
0 1 1 177 1.000000
0 1 1 178 1.000000
0 1 1 179 1.000000
0 1 1 180 1.000000
0 1 1 181 1.000000
0 1 1 182 1.000000
0 1 1 183 1.000000
0 1 1 184 1.000000
0 1 1 185 1.000000
0 1 1 186 1.000000
0 1 1 187 1.000000
0 1 1 188 1.000000
0 1 1 189 1.000000
0 1 1 190 1.000000
0 1 1 191 1.000000
0 1 1 192 1.000000
0 1 1 193 1.000000
0 1 1 194 1.000000
0 1 1 195 1.000000
0 1 1 196 1.000000
0 1 1 197 1.000000
0 1 2 2 0.500000
0 1 2 3 0.500000
0 1 2 16 0.500000
0 1 2 17 0.500000
0 1 3 3 0.500000
0 1 3 4 0.500000
0 1 3 16 0.500000
0 1 3 17 0.500000
0 1 3 18 0.500000
0 1 4 4 0.500000
0 1 4 5 0.500000
0 1 4 17 0.500000
0 1 4 18 0.500000
0 1 4 19 0.500000
0 1 5 5 0.500000
0 1 5 6 0.500000
0 1 5 18 0.500000
0 1 5 19 0.500000
0 1 5 20 0.500000
0 1 6 6 0.500000
0 1 6 7 0.500000
0 1 6 19 0.500000
0 1 6 20 0.500000
0 1 6 21 0.500000
0 1 7 7 0.500000
0 1 7 8 0.500000
0 1 7 20 0.500000
0 1 7 21 0.500000
0 1 7 22 0.500000
0 1 8 8 0.500000
0 1 8 9 0.500000
0 1 8 21 0.500000
0 1 8 22 0.500000
0 1 8 23 0.500000
0 1 9 9 0.500000
0 1 9 10 0.500000
0 1 9 22 0.500000
0 1 9 23 0.500000
0 1 9 24 0.500000
0 1 10 10 0.500000
0 1 10 11 0.500000
0 1 10 23 0.500000
0 1 10 24 0.500000
0 1 10 25 0.500000
0 1 11 11 0.500000
0 1 11 12 0.500000
0 1 11 24 0.500000
0 1 11 25 0.500000
0 1 11 26 0.500000
0 1 12 12 0.500000
0 1 12 13 0.500000
0 1 12 25 0.500000
0 1 12 26 0.500000
0 1 12 27 0.500000
0 1 13 13 0.500000
0 1 13 14 0.500000
0 1 13 26 0.500000
0 1 13 27 0.500000
0 1 13 28 0.500000
0 1 14 14 0.500000
0 1 14 15 0.500000
0 1 14 27 0.500000
0 1 14 28 0.500000
0 1 14 29 0.500000
0 1 15 15 0.500000
0 1 15 28 0.500000
0 1 15 29 0.500000
0 1 16 16 0.500000
0 1 16 17 0.500000
0 1 16 30 0.500000
0 1 16 31 0.500000
0 1 17 17 0.500000
0 1 17 18 0.500000
0 1 17 30 0.500000
0 1 17 31 0.500000
0 1 17 32 0.500000
0 1 18 18 0.500000
0 1 18 19 0.500000
0 1 18 31 0.500000
0 1 18 32 0.500000
0 1 18 33 0.500000
0 1 19 19 0.500000
0 1 19 20 0.500000
0 1 19 32 0.500000
0 1 19 33 0.500000
0 1 19 34 0.500000
0 1 20 20 0.500000
0 1 20 21 0.500000
0 1 20 33 0.500000
0 1 20 34 0.500000
0 1 20 35 0.500000
0 1 21 21 0.500000
0 1 21 22 0.500000
0 1 21 34 0.500000
0 1 21 35 0.500000
0 1 21 36 0.500000
0 1 22 22 0.500000
0 1 22 23 0.500000
0 1 22 35 0.500000
0 1 22 36 0.500000
0 1 22 37 0.500000
0 1 23 23 0.500000
0 1 23 24 0.500000
0 1 23 36 0.500000
0 1 23 37 0.500000
0 1 23 38 0.500000
0 1 24 24 0.500000
0 1 24 25 0.500000
0 1 24 37 0.500000
0 1 24 38 0.500000
0 1 24 39 0.500000
0 1 25 25 0.500000
0 1 25 26 0.500000
0 1 25 38 0.500000
0 1 25 39 0.500000
0 1 25 40 0.500000
0 1 26 26 0.500000
0 1 26 27 0.500000
0 1 26 39 0.500000
0 1 26 40 0.500000
0 1 26 41 0.500000
0 1 27 27 0.500000
0 1 27 28 0.500000
0 1 27 40 0.500000
0 1 27 41 0.500000
0 1 27 42 0.500000
0 1 28 28 0.500000
0 1 28 29 0.500000
0 1 28 41 0.500000
0 1 28 42 0.500000
0 1 28 43 0.500000
0 1 29 29 0.500000
0 1 29 42 0.500000
0 1 29 43 0.500000
0 1 30 30 0.500000
0 1 30 31 0.500000
0 1 30 44 0.500000
0 1 30 45 0.500000
0 1 31 31 0.500000
0 1 31 32 0.500000
0 1 31 44 0.500000
0 1 31 45 0.500000
0 1 31 46 0.500000
0 1 32 32 0.500000
0 1 32 33 0.500000
0 1 32 45 0.500000
0 1 32 46 0.500000
0 1 32 47 0.500000
0 1 33 33 0.500000
0 1 33 34 0.500000
0 1 33 46 0.500000
0 1 33 47 0.500000
0 1 33 48 0.500000
0 1 34 34 0.500000
0 1 34 35 0.500000
0 1 34 47 0.500000
0 1 34 48 0.500000
0 1 34 49 0.500000
0 1 35 35 0.500000
0 1 35 36 0.500000
0 1 35 48 0.500000
0 1 35 49 0.500000
0 1 35 50 0.500000
0 1 36 36 0.500000
0 1 36 37 0.500000
0 1 36 49 0.500000
0 1 36 50 0.500000
0 1 36 51 0.500000
0 1 37 37 0.500000
0 1 37 38 0.500000
0 1 37 50 0.500000
0 1 37 51 0.500000
0 1 37 52 0.500000
0 1 38 38 0.500000
0 1 38 39 0.500000
0 1 38 51 0.500000
0 1 38 52 0.500000
0 1 38 53 0.500000
0 1 39 39 0.500000
0 1 39 40 0.500000
0 1 39 52 0.500000
0 1 39 53 0.500000
0 1 39 54 0.500000
0 1 40 40 0.500000
0 1 40 41 0.500000
0 1 40 53 0.500000
0 1 40 54 0.500000
0 1 40 55 0.500000
0 1 41 41 0.500000
0 1 41 42 0.500000
0 1 41 54 0.500000
0 1 41 55 0.500000
0 1 41 56 0.500000
0 1 42 42 0.500000
0 1 42 43 0.500000
0 1 42 55 0.500000
0 1 42 56 0.500000
0 1 42 57 0.500000
0 1 43 43 0.500000
0 1 43 56 0.500000
0 1 43 57 0.500000
0 1 44 44 0.500000
0 1 44 45 0.500000
0 1 44 58 0.500000
0 1 44 59 0.500000
0 1 45 45 0.500000
0 1 45 46 0.500000
0 1 45 58 0.500000
0 1 45 59 0.500000
0 1 45 60 0.500000
0 1 46 46 0.500000
0 1 46 47 0.500000
0 1 46 59 0.500000
0 1 46 60 0.500000
0 1 46 61 0.500000
0 1 47 47 0.500000
0 1 47 48 0.500000
0 1 47 60 0.500000
0 1 47 61 0.500000
0 1 47 62 0.500000
0 1 48 48 0.500000
0 1 48 49 0.500000
0 1 48 61 0.500000
0 1 48 62 0.500000
0 1 48 63 0.500000
0 1 49 49 0.500000
0 1 49 50 0.500000
0 1 49 62 0.500000
0 1 49 63 0.500000
0 1 49 64 0.500000
0 1 50 50 0.500000
0 1 50 51 0.500000
0 1 50 63 0.500000
0 1 50 64 0.500000
0 1 50 65 0.500000
0 1 51 51 0.500000
0 1 51 52 0.500000
0 1 51 64 0.500000
0 1 51 65 0.500000
0 1 51 66 0.500000
0 1 52 52 0.500000
0 1 52 53 0.500000
0 1 52 65 0.500000
0 1 52 66 0.500000
0 1 52 67 0.500000
0 1 53 53 0.500000
0 1 53 54 0.500000
0 1 53 66 0.500000
0 1 53 67 0.500000
0 1 53 68 0.500000
0 1 54 54 0.500000
0 1 54 55 0.500000
0 1 54 67 0.500000
0 1 54 68 0.500000
0 1 54 69 0.500000
0 1 55 55 0.500000
0 1 55 56 0.500000
0 1 55 68 0.500000
0 1 55 69 0.500000
0 1 55 70 0.500000
0 1 56 56 0.500000
0 1 56 57 0.500000
0 1 56 69 0.500000
0 1 56 70 0.500000
0 1 56 71 0.500000
0 1 57 57 0.500000
0 1 57 70 0.500000
0 1 57 71 0.500000
0 1 58 58 0.500000
0 1 58 59 0.500000
0 1 58 72 0.500000
0 1 58 73 0.500000
0 1 59 59 0.500000
0 1 59 60 0.500000
0 1 59 72 0.500000
0 1 59 73 0.500000
0 1 59 74 0.500000
0 1 60 60 0.500000
0 1 60 61 0.500000
0 1 60 73 0.500000
0 1 60 74 0.500000
0 1 60 75 0.500000
0 1 61 61 0.500000
0 1 61 62 0.500000
0 1 61 74 0.500000
0 1 61 75 0.500000
0 1 61 76 0.500000
0 1 62 62 0.500000
0 1 62 63 0.500000
0 1 62 75 0.500000
0 1 62 76 0.500000
0 1 62 77 0.500000
0 1 63 63 0.500000
0 1 63 64 0.500000
0 1 63 76 0.500000
0 1 63 77 0.500000
0 1 63 78 0.500000
0 1 64 64 0.500000
0 1 64 65 0.500000
0 1 64 77 0.500000
0 1 64 78 0.500000
0 1 64 79 0.500000
0 1 65 65 0.500000
0 1 65 66 0.500000
0 1 65 78 0.500000
0 1 65 79 0.500000
0 1 65 80 0.500000
0 1 66 66 0.500000
0 1 66 67 0.500000
0 1 66 79 0.500000
0 1 66 80 0.500000
0 1 66 81 0.500000
0 1 67 67 0.500000
0 1 67 68 0.500000
0 1 67 80 0.500000
0 1 67 81 0.500000
0 1 67 82 0.500000
0 1 68 68 0.500000
0 1 68 69 0.500000
0 1 68 81 0.500000
0 1 68 82 0.500000
0 1 68 83 0.500000
0 1 69 69 0.500000
0 1 69 70 0.500000
0 1 69 82 0.500000
0 1 69 83 0.500000
0 1 69 84 0.500000
0 1 70 70 0.500000
0 1 70 71 0.500000
0 1 70 83 0.500000
0 1 70 84 0.500000
0 1 70 85 0.500000
0 1 71 71 0.500000
0 1 71 84 0.500000
0 1 71 85 0.500000
0 1 72 72 0.500000
0 1 72 73 0.500000
0 1 72 86 0.500000
0 1 72 87 0.500000
0 1 73 73 0.500000
0 1 73 74 0.500000
0 1 73 86 0.500000
0 1 73 87 0.500000
0 1 73 88 0.500000
0 1 74 74 0.500000
0 1 74 75 0.500000
0 1 74 87 0.500000
0 1 74 88 0.500000
0 1 74 89 0.500000
0 1 75 75 0.500000
0 1 75 76 0.500000
0 1 75 88 0.500000
0 1 75 89 0.500000
0 1 75 90 0.500000
0 1 76 76 0.500000
0 1 76 77 0.500000
0 1 76 89 0.500000
0 1 76 90 0.500000
0 1 76 91 0.500000
0 1 77 77 0.500000
0 1 77 78 0.500000
0 1 77 90 0.500000
0 1 77 91 0.500000
0 1 77 92 0.500000
0 1 78 78 0.500000
0 1 78 79 0.500000
0 1 78 91 0.500000
0 1 78 92 0.500000
0 1 78 93 0.500000
0 1 79 79 0.500000
0 1 79 80 0.500000
0 1 79 92 0.500000
0 1 79 93 0.500000
0 1 79 94 0.500000
0 1 80 80 0.500000
0 1 80 81 0.500000
0 1 80 93 0.500000
0 1 80 94 0.500000
0 1 80 95 0.500000
0 1 81 81 0.500000
0 1 81 82 0.500000
0 1 81 94 0.500000
0 1 81 95 0.500000
0 1 81 96 0.500000
0 1 82 82 0.500000
0 1 82 83 0.500000
0 1 82 95 0.500000
0 1 82 96 0.500000
0 1 82 97 0.500000
0 1 83 83 0.500000
0 1 83 84 0.500000
0 1 83 96 0.500000
0 1 83 97 0.500000
0 1 83 98 0.500000
0 1 84 84 0.500000
0 1 84 85 0.500000
0 1 84 97 0.500000
0 1 84 98 0.500000
0 1 84 99 0.500000
0 1 85 85 0.500000
0 1 85 98 0.500000
0 1 85 99 0.500000
0 1 86 86 0.500000
0 1 86 87 0.500000
0 1 86 100 0.500000
0 1 86 101 0.500000
0 1 87 87 0.500000
0 1 87 88 0.500000
0 1 87 100 0.500000
0 1 87 101 0.500000
0 1 87 102 0.500000
0 1 88 88 0.500000
0 1 88 89 0.500000
0 1 88 101 0.500000
0 1 88 102 0.500000
0 1 88 103 0.500000
0 1 89 89 0.500000
0 1 89 90 0.500000
0 1 89 102 0.500000
0 1 89 103 0.500000
0 1 89 104 0.500000
0 1 90 90 0.500000
0 1 90 91 0.500000
0 1 90 103 0.500000
0 1 90 104 0.500000
0 1 90 105 0.500000
0 1 91 91 0.500000
0 1 91 92 0.500000
0 1 91 104 0.500000
0 1 91 105 0.500000
0 1 91 106 0.500000
0 1 92 92 0.500000
0 1 92 93 0.500000
0 1 92 105 0.500000
0 1 92 106 0.500000
0 1 92 107 0.500000
0 1 93 93 0.500000
0 1 93 94 0.500000
0 1 93 106 0.500000
0 1 93 107 0.500000
0 1 93 108 0.500000
0 1 94 94 0.500000
0 1 94 95 0.500000
0 1 94 107 0.500000
0 1 94 108 0.500000
0 1 94 109 0.500000
0 1 95 95 0.500000
0 1 95 96 0.500000
0 1 95 108 0.500000
0 1 95 109 0.500000
0 1 95 110 0.500000
0 1 96 96 0.500000
0 1 96 97 0.500000
0 1 96 109 0.500000
0 1 96 110 0.500000
0 1 96 111 0.500000
0 1 97 97 0.500000
0 1 97 98 0.500000
0 1 97 110 0.500000
0 1 97 111 0.500000
0 1 97 112 0.500000
0 1 98 98 0.500000
0 1 98 99 0.500000
0 1 98 111 0.500000
0 1 98 112 0.500000
0 1 98 113 0.500000
0 1 99 99 0.500000
0 1 99 112 0.500000
0 1 99 113 0.500000
0 1 100 100 0.500000
0 1 100 101 0.500000
0 1 100 114 0.500000
0 1 100 115 0.500000
0 1 101 101 0.500000
0 1 101 102 0.500000
0 1 101 114 0.500000
0 1 101 115 0.500000
0 1 101 116 0.500000
0 1 102 102 0.500000
0 1 102 103 0.500000
0 1 102 115 0.500000
0 1 102 116 0.500000
0 1 102 117 0.500000
0 1 103 103 0.500000
0 1 103 104 0.500000
0 1 103 116 0.500000
0 1 103 117 0.500000
0 1 103 118 0.500000
0 1 104 104 0.500000
0 1 104 105 0.500000
0 1 104 117 0.500000
0 1 104 118 0.500000
0 1 104 119 0.500000
0 1 105 105 0.500000
0 1 105 106 0.500000
0 1 105 118 0.500000
0 1 105 119 0.500000
0 1 105 120 0.500000
0 1 106 106 0.500000
0 1 106 107 0.500000
0 1 106 119 0.500000
0 1 106 120 0.500000
0 1 106 121 0.500000
0 1 107 107 0.500000
0 1 107 108 0.500000
0 1 107 120 0.500000
0 1 107 121 0.500000
0 1 107 122 0.500000
0 1 108 108 0.500000
0 1 108 109 0.500000
0 1 108 121 0.500000
0 1 108 122 0.500000
0 1 108 123 0.500000
0 1 109 109 0.500000
0 1 109 110 0.500000
0 1 109 122 0.500000
0 1 109 123 0.500000
0 1 109 124 0.500000
0 1 110 110 0.500000
0 1 110 111 0.500000
0 1 110 123 0.500000
0 1 110 124 0.500000
0 1 110 125 0.500000
0 1 111 111 0.500000
0 1 111 112 0.500000
0 1 111 124 0.500000
0 1 111 125 0.500000
0 1 111 126 0.500000
0 1 112 112 0.500000
0 1 112 113 0.500000
0 1 112 125 0.500000
0 1 112 126 0.500000
0 1 112 127 0.500000
0 1 113 113 0.500000
0 1 113 126 0.500000
0 1 113 127 0.500000
0 1 114 114 0.500000
0 1 114 115 0.500000
0 1 114 128 0.500000
0 1 114 129 0.500000
0 1 115 115 0.500000
0 1 115 116 0.500000
0 1 115 128 0.500000
0 1 115 129 0.500000
0 1 115 130 0.500000
0 1 116 116 0.500000
0 1 116 117 0.500000
0 1 116 129 0.500000
0 1 116 130 0.500000
0 1 116 131 0.500000
0 1 117 117 0.500000
0 1 117 118 0.500000
0 1 117 130 0.500000
0 1 117 131 0.500000
0 1 117 132 0.500000
0 1 118 118 0.500000
0 1 118 119 0.500000
0 1 118 131 0.500000
0 1 118 132 0.500000
0 1 118 133 0.500000
0 1 119 119 0.500000
0 1 119 120 0.500000
0 1 119 132 0.500000
0 1 119 133 0.500000
0 1 119 134 0.500000
0 1 120 120 0.500000
0 1 120 121 0.500000
0 1 120 133 0.500000
0 1 120 134 0.500000
0 1 120 135 0.500000
0 1 121 121 0.500000
0 1 121 122 0.500000
0 1 121 134 0.500000
0 1 121 135 0.500000
0 1 121 136 0.500000
0 1 122 122 0.500000
0 1 122 123 0.500000
0 1 122 135 0.500000
0 1 122 136 0.500000
0 1 122 137 0.500000
0 1 123 123 0.500000
0 1 123 124 0.500000
0 1 123 136 0.500000
0 1 123 137 0.500000
0 1 123 138 0.500000
0 1 124 124 0.500000
0 1 124 125 0.500000
0 1 124 137 0.500000
0 1 124 138 0.500000
0 1 124 139 0.500000
0 1 125 125 0.500000
0 1 125 126 0.500000
0 1 125 138 0.500000
0 1 125 139 0.500000
0 1 125 140 0.500000
0 1 126 126 0.500000
0 1 126 127 0.500000
0 1 126 139 0.500000
0 1 126 140 0.500000
0 1 126 141 0.500000
0 1 127 127 0.500000
0 1 127 140 0.500000
0 1 127 141 0.500000
0 1 128 128 0.500000
0 1 128 129 0.500000
0 1 128 142 0.500000
0 1 128 143 0.500000
0 1 129 129 0.500000
0 1 129 130 0.500000
0 1 129 142 0.500000
0 1 129 143 0.500000
0 1 129 144 0.500000
0 1 130 130 0.500000
0 1 130 131 0.500000
0 1 130 143 0.500000
0 1 130 144 0.500000
0 1 130 145 0.500000
0 1 131 131 0.500000
0 1 131 132 0.500000
0 1 131 144 0.500000
0 1 131 145 0.500000
0 1 131 146 0.500000
0 1 132 132 0.500000
0 1 132 133 0.500000
0 1 132 145 0.500000
0 1 132 146 0.500000
0 1 132 147 0.500000
0 1 133 133 0.500000
0 1 133 134 0.500000
0 1 133 146 0.500000
0 1 133 147 0.500000
0 1 133 148 0.500000
0 1 134 134 0.500000
0 1 134 135 0.500000
0 1 134 147 0.500000
0 1 134 148 0.500000
0 1 134 149 0.500000
0 1 135 135 0.500000
0 1 135 136 0.500000
0 1 135 148 0.500000
0 1 135 149 0.500000
0 1 135 150 0.500000
0 1 136 136 0.500000
0 1 136 137 0.500000
0 1 136 149 0.500000
0 1 136 150 0.500000
0 1 136 151 0.500000
0 1 137 137 0.500000
0 1 137 138 0.500000
0 1 137 150 0.500000
0 1 137 151 0.500000
0 1 137 152 0.500000
0 1 138 138 0.500000
0 1 138 139 0.500000
0 1 138 151 0.500000
0 1 138 152 0.500000
0 1 138 153 0.500000
0 1 139 139 0.500000
0 1 139 140 0.500000
0 1 139 152 0.500000
0 1 139 153 0.500000
0 1 139 154 0.500000
0 1 140 140 0.500000
0 1 140 141 0.500000
0 1 140 153 0.500000
0 1 140 154 0.500000
0 1 140 155 0.500000
0 1 141 141 0.500000
0 1 141 154 0.500000
0 1 141 155 0.500000
0 1 142 142 0.500000
0 1 142 143 0.500000
0 1 142 156 0.500000
0 1 142 157 0.500000
0 1 143 143 0.500000
0 1 143 144 0.500000
0 1 143 156 0.500000
0 1 143 157 0.500000
0 1 143 158 0.500000
0 1 144 144 0.500000
0 1 144 145 0.500000
0 1 144 157 0.500000
0 1 144 158 0.500000
0 1 144 159 0.500000
0 1 145 145 0.500000
0 1 145 146 0.500000
0 1 145 158 0.500000
0 1 145 159 0.500000
0 1 145 160 0.500000
0 1 146 146 0.500000
0 1 146 147 0.500000
0 1 146 159 0.500000
0 1 146 160 0.500000
0 1 146 161 0.500000
0 1 147 147 0.500000
0 1 147 148 0.500000
0 1 147 160 0.500000
0 1 147 161 0.500000
0 1 147 162 0.500000
0 1 148 148 0.500000
0 1 148 149 0.500000
0 1 148 161 0.500000
0 1 148 162 0.500000
0 1 148 163 0.500000
0 1 149 149 0.500000
0 1 149 150 0.500000
0 1 149 162 0.500000
0 1 149 163 0.500000
0 1 149 164 0.500000
0 1 150 150 0.500000
0 1 150 151 0.500000
0 1 150 163 0.500000
0 1 150 164 0.500000
0 1 150 165 0.500000
0 1 151 151 0.500000
0 1 151 152 0.500000
0 1 151 164 0.500000
0 1 151 165 0.500000
0 1 151 166 0.500000
0 1 152 152 0.500000
0 1 152 153 0.500000
0 1 152 165 0.500000
0 1 152 166 0.500000
0 1 152 167 0.500000
0 1 153 153 0.500000
0 1 153 154 0.500000
0 1 153 166 0.500000
0 1 153 167 0.500000
0 1 153 168 0.500000
0 1 154 154 0.500000
0 1 154 155 0.500000
0 1 154 167 0.500000
0 1 154 168 0.500000
0 1 154 169 0.500000
0 1 155 155 0.500000
0 1 155 168 0.500000
0 1 155 169 0.500000
0 1 156 156 0.500000
0 1 156 157 0.500000
0 1 156 170 0.500000
0 1 156 171 0.500000
0 1 157 157 0.500000
0 1 157 158 0.500000
0 1 157 170 0.500000
0 1 157 171 0.500000
0 1 157 172 0.500000
0 1 158 158 0.500000
0 1 158 159 0.500000
0 1 158 171 0.500000
0 1 158 172 0.500000
0 1 158 173 0.500000
0 1 159 159 0.500000
0 1 159 160 0.500000
0 1 159 172 0.500000
0 1 159 173 0.500000
0 1 159 174 0.500000
0 1 160 160 0.500000
0 1 160 161 0.500000
0 1 160 173 0.500000
0 1 160 174 0.500000
0 1 160 175 0.500000
0 1 161 161 0.500000
0 1 161 162 0.500000
0 1 161 174 0.500000
0 1 161 175 0.500000
0 1 161 176 0.500000
0 1 162 162 0.500000
0 1 162 163 0.500000
0 1 162 175 0.500000
0 1 162 176 0.500000
0 1 162 177 0.500000
0 1 163 163 0.500000
0 1 163 164 0.500000
0 1 163 176 0.500000
0 1 163 177 0.500000
0 1 163 178 0.500000
0 1 164 164 0.500000
0 1 164 165 0.500000
0 1 164 177 0.500000
0 1 164 178 0.500000
0 1 164 179 0.500000
0 1 165 165 0.500000
0 1 165 166 0.500000
0 1 165 178 0.500000
0 1 165 179 0.500000
0 1 165 180 0.500000
0 1 166 166 0.500000
0 1 166 167 0.500000
0 1 166 179 0.500000
0 1 166 180 0.500000
0 1 166 181 0.500000
0 1 167 167 0.500000
0 1 167 168 0.500000
0 1 167 180 0.500000
0 1 167 181 0.500000
0 1 167 182 0.500000
0 1 168 168 0.500000
0 1 168 169 0.500000
0 1 168 181 0.500000
0 1 168 182 0.500000
0 1 168 183 0.500000
0 1 169 169 0.500000
0 1 169 182 0.500000
0 1 169 183 0.500000
0 1 170 170 0.500000
0 1 170 171 0.500000
0 1 170 184 0.500000
0 1 170 185 0.500000
0 1 171 171 0.500000
0 1 171 172 0.500000
0 1 171 184 0.500000
0 1 171 185 0.500000
0 1 171 186 0.500000
0 1 172 172 0.500000
0 1 172 173 0.500000
0 1 172 185 0.500000
0 1 172 186 0.500000
0 1 172 187 0.500000
0 1 173 173 0.500000
0 1 173 174 0.500000
0 1 173 186 0.500000
0 1 173 187 0.500000
0 1 173 188 0.500000
0 1 174 174 0.500000
0 1 174 175 0.500000
0 1 174 187 0.500000
0 1 174 188 0.500000
0 1 174 189 0.500000
0 1 175 175 0.500000
0 1 175 176 0.500000
0 1 175 188 0.500000
0 1 175 189 0.500000
0 1 175 190 0.500000
0 1 176 176 0.500000
0 1 176 177 0.500000
0 1 176 189 0.500000
0 1 176 190 0.500000
0 1 176 191 0.500000
0 1 177 177 0.500000
0 1 177 178 0.500000
0 1 177 190 0.500000
0 1 177 191 0.500000
0 1 177 192 0.500000
0 1 178 178 0.500000
0 1 178 179 0.500000
0 1 178 191 0.500000
0 1 178 192 0.500000
0 1 178 193 0.500000
0 1 179 179 0.500000
0 1 179 180 0.500000
0 1 179 192 0.500000
0 1 179 193 0.500000
0 1 179 194 0.500000
0 1 180 180 0.500000
0 1 180 181 0.500000
0 1 180 193 0.500000
0 1 180 194 0.500000
0 1 180 195 0.500000
0 1 181 181 0.500000
0 1 181 182 0.500000
0 1 181 194 0.500000
0 1 181 195 0.500000
0 1 181 196 0.500000
0 1 182 182 0.500000
0 1 182 183 0.500000
0 1 182 195 0.500000
0 1 182 196 0.500000
0 1 182 197 0.500000
0 1 183 183 0.500000
0 1 183 196 0.500000
0 1 183 197 0.500000
0 1 184 184 0.500000
0 1 184 185 0.500000
0 1 185 185 0.500000
0 1 185 186 0.500000
0 1 186 186 0.500000
0 1 186 187 0.500000
0 1 187 187 0.500000
0 1 187 188 0.500000
0 1 188 188 0.500000
0 1 188 189 0.500000
0 1 189 189 0.500000
0 1 189 190 0.500000
0 1 190 190 0.500000
0 1 190 191 0.500000
0 1 191 191 0.500000
0 1 191 192 0.500000
0 1 192 192 0.500000
0 1 192 193 0.500000
0 1 193 193 0.500000
0 1 193 194 0.500000
0 1 194 194 0.500000
0 1 194 195 0.500000
0 1 195 195 0.500000
0 1 195 196 0.500000
0 1 196 196 0.500000
0 1 196 197 0.500000
0 1 197 197 0.500000
